633,441
996,635
761,446
601,446
681,946
1095,471
586,593
847,919
463,564
1101,406
396,314
629,334
625,51
761,366
695,494
482,470
254,189
947,448
606,880
452,721
602,-97
681,766
918,369
1020,652
802,494
385,452
414,542
482,342
441,406
381,406
891,406
627,512
491,780
539,452
708,321
980,818
773,121
